Set parameter LicenseID to value 2609176
Set parameter TimeLimit to value 1800
Gurobi Optimizer version 11.0.3 build v11.0.3rc0 (linux64 - "Debian GNU/Linux 12 (bookworm)")

CPU model: AMD EPYC 7B12, instruction set [SSE2|AVX|AVX2]
Thread count: 4 physical cores, 8 logical processors, using up to 8 threads

Optimize a model with 17293 rows, 10000 columns and 1110802 nonzeros
Model fingerprint: 0xe9e8b23e
Variable types: 0 continuous, 10000 integer (10000 binary)
Coefficient statistics:
  Matrix range     [1e+00, 1e+00]
  Objective range  [0e+00, 0e+00]
  Bounds range     [1e+00, 1e+00]
  RHS range        [1e+00, 1e+00]
Presolve removed 164 rows and 50 columns
Presolve time: 2.05s
Presolved: 17129 rows, 9950 columns, 1100380 nonzeros
Variable types: 0 continuous, 9950 integer (9950 binary)
Error: invalid user locale; possible fix is to set the system environment
       variable 'LC_ALL' to a valid locale (e.g., to 'C')

Root relaxation: objective 0.000000e+00, 1690 iterations, 0.60 seconds (0.91 work units)
Total elapsed time = 7.68s (DegenMoves)

    Nodes    |    Current Node    |     Objective Bounds      |     Work
 Expl Unexpl |  Obj  Depth IntInf | Incumbent    BestBd   Gap | It/Node Time

     0     0    0.00000    0  283          -    0.00000      -     -   10s
     0     0    0.00000    0  228          -    0.00000      -     -   10s
     0     0    0.00000    0  264          -    0.00000      -     -   11s
     0     0    0.00000    0  421          -    0.00000      -     -   14s
     0     0    0.00000    0  402          -    0.00000      -     -   14s
     0     0    0.00000    0  377          -    0.00000      -     -   15s
     0     0    0.00000    0  359          -    0.00000      -     -   15s
     0     0    0.00000    0  425          -    0.00000      -     -   27s
     0     0    0.00000    0  418          -    0.00000      -     -   28s
     0     0    0.00000    0  442          -    0.00000      -     -   28s
     0     0    0.00000    0  389          -    0.00000      -     -   28s
     0     0    0.00000    0  346          -    0.00000      -     -   29s
     0     0    0.00000    0  320          -    0.00000      -     -   43s
     0     0    0.00000    0  344          -    0.00000      -     -   44s
     0     0    0.00000    0  335          -    0.00000      -     -   44s
     0     0    0.00000    0  310          -    0.00000      -     -   45s
     0     0    0.00000    0  304          -    0.00000      -     -   45s
     0     0    0.00000    0  353          -    0.00000      -     -   62s
     0     0    0.00000    0  394          -    0.00000      -     -   63s
     0     0    0.00000    0  391          -    0.00000      -     -   63s
     0     0    0.00000    0  390          -    0.00000      -     -   64s
     0     0    0.00000    0  435          -    0.00000      -     -   74s
     0     0    0.00000    0  383          -    0.00000      -     -   75s
     0     0    0.00000    0  384          -    0.00000      -     -   76s
     0     0    0.00000    0  285          -    0.00000      -     -   98s
     0     0    0.00000    0  324          -    0.00000      -     -   99s
     0     0    0.00000    0  336          -    0.00000      -     -   99s
     0     0    0.00000    0  335          -    0.00000      -     -   99s
     0     0    0.00000    0  278          -    0.00000      -     -  114s
     0     2    0.00000    0  278          -    0.00000      -     -  148s
     3     8    0.00000    2  353          -    0.00000      -  6592  150s
    15    18    0.00000    5  377          -    0.00000      -  3161  155s
    27    30    0.00000    8  302          -    0.00000      -  2282  160s
    51    58    0.00000   13  309          -    0.00000      -  1891  169s
    91    66 infeasible   19               -    0.00000      -  1568  177s
   125   100    0.00000   21  346          -    0.00000      -  1730  186s
   187   115 infeasible   27               -    0.00000      -  1615  199s
   298   136    0.00000   12  324          -    0.00000      -  1398  214s
   461   171 infeasible   20               -    0.00000      -  1266  231s
   626   207    0.00000   26  337          -    0.00000      -  1216  252s
   859   227    0.00000   30  364          -    0.00000      -  1144  278s
  1330   239 infeasible   55               -    0.00000      -   971  300s
  1807   235    0.00000    5  374          -    0.00000      -   875  320s
  2161   235    0.00000   17  284          -    0.00000      -   840  341s
  2444   235 infeasible   36               -    0.00000      -   830  362s
  2706   269 infeasible   49               -    0.00000      -   833  383s
  3010   295    0.00000   21  337          -    0.00000      -   828  406s
  3440   290 infeasible   41               -    0.00000      -   803  431s
  4093   270 infeasible   48               -    0.00000      -   751  456s
  4508   283    0.00000   50  229          -    0.00000      -   743  480s
  4899   300 infeasible   62               -    0.00000      -   741  506s
  5265   299 infeasible   76               -    0.00000      -   741  532s
  5724   315 infeasible   56               -    0.00000      -   734  559s
  6216   298    0.00000   44   98          -    0.00000      -   728  587s
  6740   311 infeasible   52               -    0.00000      -   721  615s
  7269   297 infeasible   54               -    0.00000      -   717  644s
  7826   323 infeasible   29               -    0.00000      -   712  673s
  8277   324    0.00000   48  278          -    0.00000      -   715  715s
  8279   325    0.00000   14 2371          -    0.00000      -   715  811s
  8280   326    0.00000   32 3327          -    0.00000      -   715  882s
  8281   327    0.00000   21 3568          -    0.00000      -   714  891s
  8282   327    0.00000   22 4225          -    0.00000      -   714  971s
  8283   328    0.00000   22 4614          -    0.00000      -   714  986s
  8284   329    0.00000   10 4652          -    0.00000      -   714 1073s
  8285   329    0.00000   16 4693          -    0.00000      -   714 1087s
  8286   330    0.00000   22 4684          -    0.00000      -   714 1170s
  8287   331    0.00000   31 4667          -    0.00000      -   714 1182s
  8288   331    0.00000   12 4607          -    0.00000      -   714 1262s
  8289   332    0.00000   14 4621          -    0.00000      -   714 1274s
  8290   333    0.00000   59 4601          -    0.00000      -   714 1352s
  8291   333    0.00000   21 4714          -    0.00000      -   714 1364s
  8292   334    0.00000   19 4701          -    0.00000      -   713 1445s
  8293   335    0.00000   19 4690          -    0.00000      -   713 1454s
H 8293   318                       0.0000000    0.00000  0.00%   713 1494s

Cutting planes:
  Projected implied bound: 1
  Clique: 163
  MIR: 1
  Flow cover: 7
  Zero half: 84
  RLT: 158
  Relax-and-lift: 35

Explored 8293 nodes (6655957 simplex iterations) in 1494.31 seconds (2764.72 work units)
Thread count was 8 (of 8 available processors)

Solution count 1: 0 

Optimal solution found (tolerance 1.00e-04)
Best objective 0.000000000000e+00, best bound 0.000000000000e+00, gap 0.0000%
Giá trị Antibandwidth: 32
Các nhãn: [3, 68, 70, 89, 94, 73, 64, 98, 28, 40, 93, 35, 76, 43, 34, 74, 7, 12, 36, 100, 61, 48, 60, 65, 95, 82, 49, 33, 21, 23, 66, 97, 13, 83, 45, 57, 31, 99, 87, 14, 54, 18, 27, 90, 52, 4, 25, 8, 26, 78, 32, 2, 71, 67, 62, 56, 59, 77, 17, 86, 10, 22, 92, 81, 63, 19, 30, 69, 41, 39, 58, 42, 5, 75, 29, 20, 55, 47, 44, 1, 46, 9, 96, 88, 38, 85, 16, 50, 91, 80, 11, 51, 15, 79, 37, 72, 84, 53, 6, 24]
Bài toán Antibandwidth
Set parameter TimeLimit to value 1800
Gurobi Optimizer version 11.0.3 build v11.0.3rc0 (linux64 - "Debian GNU/Linux 12 (bookworm)")

CPU model: AMD EPYC 7B12, instruction set [SSE2|AVX|AVX2]
Thread count: 4 physical cores, 8 logical processors, using up to 8 threads

Optimize a model with 17046 rows, 10000 columns and 1128586 nonzeros
Model fingerprint: 0xc5940bdd
Variable types: 0 continuous, 10000 integer (10000 binary)
Coefficient statistics:
  Matrix range     [1e+00, 1e+00]
  Objective range  [0e+00, 0e+00]
  Bounds range     [1e+00, 1e+00]
  RHS range        [1e+00, 1e+00]
Presolve removed 158 rows and 50 columns
Presolve time: 1.90s
Presolved: 16888 rows, 9950 columns, 1118140 nonzeros
Variable types: 0 continuous, 9950 integer (9950 binary)

Root relaxation: objective 0.000000e+00, 1680 iterations, 0.55 seconds (0.89 work units)
Total elapsed time = 6.98s (DegenMoves)

    Nodes    |    Current Node    |     Objective Bounds      |     Work
 Expl Unexpl |  Obj  Depth IntInf | Incumbent    BestBd   Gap | It/Node Time

     0     0    0.00000    0  260          -    0.00000      -     -   10s
     0     0    0.00000    0  268          -    0.00000      -     -   10s
     0     0    0.00000    0  355          -    0.00000      -     -   14s
     0     0    0.00000    0  345          -    0.00000      -     -   14s
     0     0    0.00000    0  345          -    0.00000      -     -   14s
     0     0    0.00000    0  329          -    0.00000      -     -   15s
     0     0    0.00000    0  222          -    0.00000      -     -   34s
     0     0    0.00000    0  331          -    0.00000      -     -   35s
     0     0    0.00000    0  293          -    0.00000      -     -   35s
     0     0    0.00000    0  302          -    0.00000      -     -   35s
     0     0    0.00000    0  280          -    0.00000      -     -   36s
     0     0    0.00000    0  310          -    0.00000      -     -   63s
     0     0    0.00000    0  315          -    0.00000      -     -   63s
     0     0    0.00000    0  307          -    0.00000      -     -   64s
     0     0    0.00000    0  333          -    0.00000      -     -   65s
     0     0    0.00000    0  327          -    0.00000      -     -   65s
     0     0    0.00000    0  116          -    0.00000      -     -   90s
     0     0    0.00000    0  135          -    0.00000      -     -   91s
     0     0    0.00000    0  129          -    0.00000      -     -   91s
     0     0    0.00000    0  326          -    0.00000      -     -   93s
     0     0    0.00000    0  314          -    0.00000      -     -   93s
     0     0    0.00000    0  153          -    0.00000      -     -  112s
     0     0    0.00000    0  343          -    0.00000      -     -  114s
     0     0    0.00000    0  412          -    0.00000      -     -  131s
     0     0    0.00000    0  410          -    0.00000      -     -  131s
     0     0    0.00000    0  488          -    0.00000      -     -  132s
     0     0    0.00000    0  482          -    0.00000      -     -  132s
     0     0    0.00000    0  474          -    0.00000      -     -  132s
     0     0    0.00000    0  366          -    0.00000      -     -  155s
     0     0    0.00000    0  433          -    0.00000      -     -  156s
     0     0    0.00000    0  432          -    0.00000      -     -  156s
     0     0    0.00000    0  207          -    0.00000      -     -  183s
     0     2    0.00000    0  207          -    0.00000      -     -  215s
    11    16    0.00000    4  378          -    0.00000      -  3295  221s
    19    24    0.00000    6  296          -    0.00000      -  2908  225s
    36    45    0.00000   10  311          -    0.00000      -  2669  247s
    52    68 infeasible   13               -    0.00000      -  3070  259s
   117    83 infeasible   11               -    0.00000      -  2100  270s
   168   106    0.00000   13  354          -    0.00000      -  1980  286s
